letting initialStacks = [22, 32, 41, 26, 4, 13, 40, 14, 51, 1, 29, 30, 12, 34, 2, 43, 19, 35, 23, 39, 21, 46, 8, 42, 33, 3, 36, 48, 18, 7, 24, 10, 37, 50, 6, 5, 31, 16, 17, 9, 47, 44, 38, 49, 45, 15, 11, 27, 20, 25, 28]
